(set-info :category "industrial")
(set-info :status sat)
(declare-fun x00 () (_ BitVec 8))
(declare-fun x01 () (_ BitVec 8))
(declare-fun x02 () (_ BitVec 8))
(declare-fun x05 () (_ BitVec 8))
(declare-fun x06 () (_ BitVec 8))
(declare-fun x08 () (_ BitVec 8))
(declare-fun x10 () (_ BitVec 8))
(declare-fun x13 () (_ BitVec 8))
(declare-fun x15 () (_ BitVec 8))
(declare-fun x17 () (_ BitVec 8))
(declare-fun x18 () (_ BitVec 8))
(declare-fun x21 () (_ BitVec 8))
(declare-fun x23 () (_ BitVec 8))
(declare-fun x24 () (_ BitVec 8))
(declare-fun x25 () (_ BitVec 8))
(declare-fun x26 () (_ BitVec 8))
(declare-fun x27 () (_ BitVec 8))
(declare-fun x28 () (_ BitVec 8))
(declare-fun x30 () (_ BitVec 8))
(declare-fun x31 () (_ BitVec 8))
(declare-fun x35 () (_ BitVec 8))
(declare-fun x36 () (_ BitVec 8))
(declare-fun x37 () (_ BitVec 8))
(declare-fun x38 () (_ BitVec 8))
(declare-fun x41 () (_ BitVec 8))
(declare-fun x44 () (_ BitVec 8))
(declare-fun x46 () (_ BitVec 8))
(declare-fun x47 () (_ BitVec 8))
(declare-fun x48 () (_ BitVec 8))
(declare-fun x51 () (_ BitVec 8))
(declare-fun x52 () (_ BitVec 8))
(declare-fun x54 () (_ BitVec 8))
(declare-fun x55 () (_ BitVec 8))
(declare-fun x57 () (_ BitVec 8))
(declare-fun x60 () (_ BitVec 8))
(declare-fun x62 () (_ BitVec 8))
(declare-fun x63 () (_ BitVec 8))
(declare-fun x64 () (_ BitVec 8))
(declare-fun x65 () (_ BitVec 8))
(declare-fun x68 () (_ BitVec 8))
(declare-fun x70 () (_ BitVec 8))
(declare-fun x71 () (_ BitVec 8))
(declare-fun x72 () (_ BitVec 8))
(declare-fun x74 () (_ BitVec 8))
(declare-fun x76 () (_ BitVec 8))
(declare-fun x81 () (_ BitVec 8))
(declare-fun x83 () (_ BitVec 8))
(declare-fun x87 () (_ BitVec 8))
(assert (bvult x00 (_ bv9 8)))
(assert (bvult x01 (_ bv9 8)))
(assert (bvult x02 (_ bv9 8)))
(assert (bvult x05 (_ bv9 8)))
(assert (bvult x06 (_ bv9 8)))
(assert (bvult x08 (_ bv9 8)))
(assert (bvult x10 (_ bv9 8)))
(assert (bvult x13 (_ bv9 8)))
(assert (bvult x15 (_ bv9 8)))
(assert (bvult x17 (_ bv9 8)))
(assert (bvult x18 (_ bv9 8)))
(assert (bvult x21 (_ bv9 8)))
(assert (bvult x23 (_ bv9 8)))
(assert (bvult x24 (_ bv9 8)))
(assert (bvult x25 (_ bv9 8)))
(assert (bvult x26 (_ bv9 8)))
(assert (bvult x27 (_ bv9 8)))
(assert (bvult x28 (_ bv9 8)))
(assert (bvult x30 (_ bv9 8)))
(assert (bvult x31 (_ bv9 8)))
(assert (bvult x35 (_ bv9 8)))
(assert (bvult x36 (_ bv9 8)))
(assert (bvult x37 (_ bv9 8)))
(assert (bvult x38 (_ bv9 8)))
(assert (bvult x41 (_ bv9 8)))
(assert (bvult x44 (_ bv9 8)))
(assert (bvult x46 (_ bv9 8)))
(assert (bvult x47 (_ bv9 8)))
(assert (bvult x48 (_ bv9 8)))
(assert (bvult x51 (_ bv9 8)))
(assert (bvult x52 (_ bv9 8)))
(assert (bvult x54 (_ bv9 8)))
(assert (bvult x55 (_ bv9 8)))
(assert (bvult x57 (_ bv9 8)))
(assert (bvult x60 (_ bv9 8)))
(assert (bvult x62 (_ bv9 8)))
(assert (bvult x63 (_ bv9 8)))
(assert (bvult x64 (_ bv9 8)))
(assert (bvult x65 (_ bv9 8)))
(assert (bvult x68 (_ bv9 8)))
(assert (bvult x70 (_ bv9 8)))
(assert (bvult x71 (_ bv9 8)))
(assert (bvult x72 (_ bv9 8)))
(assert (bvult x74 (_ bv9 8)))
(assert (bvult x76 (_ bv9 8)))
(assert (bvult x81 (_ bv9 8)))
(assert (bvult x83 (_ bv9 8)))
(assert (bvult x87 (_ bv9 8)))
(assert (not (= x00 x01)))
(assert (not (= x00 x02)))
(assert (not (= x00 (_ bv1 8))))
(assert (not (= x00 (_ bv8 8))))
(assert (not (= x00 x05)))
(assert (not (= x00 x06)))
(assert (not (= x00 (_ bv7 8))))
(assert (not (= x00 x08)))
(assert (not (= x01 x02)))
(assert (not (= x01 (_ bv1 8))))
(assert (not (= x01 (_ bv8 8))))
(assert (not (= x01 x05)))
(assert (not (= x01 x06)))
(assert (not (= x01 (_ bv7 8))))
(assert (not (= x01 x08)))
(assert (not (= x02 (_ bv1 8))))
(assert (not (= x02 (_ bv8 8))))
(assert (not (= x02 x05)))
(assert (not (= x02 x06)))
(assert (not (= x02 (_ bv7 8))))
(assert (not (= x02 x08)))
(assert (not (= (_ bv1 8) (_ bv8 8))))
(assert (not (= (_ bv1 8) x05)))
(assert (not (= (_ bv1 8) x06)))
(assert (not (= (_ bv1 8) (_ bv7 8))))
(assert (not (= (_ bv1 8) x08)))
(assert (not (= (_ bv8 8) x05)))
(assert (not (= (_ bv8 8) x06)))
(assert (not (= (_ bv8 8) (_ bv7 8))))
(assert (not (= (_ bv8 8) x08)))
(assert (not (= x05 x06)))
(assert (not (= x05 (_ bv7 8))))
(assert (not (= x05 x08)))
(assert (not (= x06 (_ bv7 8))))
(assert (not (= x06 x08)))
(assert (not (= (_ bv7 8) x08)))
(assert (not (= x10 (_ bv8 8))))
(assert (not (= x10 (_ bv2 8))))
(assert (not (= x10 x13)))
(assert (not (= x10 (_ bv6 8))))
(assert (not (= x10 x15)))
(assert (not (= x10 (_ bv5 8))))
(assert (not (= x10 x17)))
(assert (not (= x10 x18)))
(assert (not (= (_ bv8 8) (_ bv2 8))))
(assert (not (= (_ bv8 8) x13)))
(assert (not (= (_ bv8 8) (_ bv6 8))))
(assert (not (= (_ bv8 8) x15)))
(assert (not (= (_ bv8 8) (_ bv5 8))))
(assert (not (= (_ bv8 8) x17)))
(assert (not (= (_ bv8 8) x18)))
(assert (not (= (_ bv2 8) x13)))
(assert (not (= (_ bv2 8) (_ bv6 8))))
(assert (not (= (_ bv2 8) x15)))
(assert (not (= (_ bv2 8) (_ bv5 8))))
(assert (not (= (_ bv2 8) x17)))
(assert (not (= (_ bv2 8) x18)))
(assert (not (= x13 (_ bv6 8))))
(assert (not (= x13 x15)))
(assert (not (= x13 (_ bv5 8))))
(assert (not (= x13 x17)))
(assert (not (= x13 x18)))
(assert (not (= (_ bv6 8) x15)))
(assert (not (= (_ bv6 8) (_ bv5 8))))
(assert (not (= (_ bv6 8) x17)))
(assert (not (= (_ bv6 8) x18)))
(assert (not (= x15 (_ bv5 8))))
(assert (not (= x15 x17)))
(assert (not (= x15 x18)))
(assert (not (= (_ bv5 8) x17)))
(assert (not (= (_ bv5 8) x18)))
(assert (not (= x17 x18)))
(assert (not (= (_ bv1 8) x21)))
(assert (not (= (_ bv1 8) (_ bv3 8))))
(assert (not (= (_ bv1 8) x23)))
(assert (not (= (_ bv1 8) x24)))
(assert (not (= (_ bv1 8) x25)))
(assert (not (= (_ bv1 8) x26)))
(assert (not (= (_ bv1 8) x27)))
(assert (not (= (_ bv1 8) x28)))
(assert (not (= x21 (_ bv3 8))))
(assert (not (= x21 x23)))
(assert (not (= x21 x24)))
(assert (not (= x21 x25)))
(assert (not (= x21 x26)))
(assert (not (= x21 x27)))
(assert (not (= x21 x28)))
(assert (not (= (_ bv3 8) x23)))
(assert (not (= (_ bv3 8) x24)))
(assert (not (= (_ bv3 8) x25)))
(assert (not (= (_ bv3 8) x26)))
(assert (not (= (_ bv3 8) x27)))
(assert (not (= (_ bv3 8) x28)))
(assert (not (= x23 x24)))
(assert (not (= x23 x25)))
(assert (not (= x23 x26)))
(assert (not (= x23 x27)))
(assert (not (= x23 x28)))
(assert (not (= x24 x25)))
(assert (not (= x24 x26)))
(assert (not (= x24 x27)))
(assert (not (= x24 x28)))
(assert (not (= x25 x26)))
(assert (not (= x25 x27)))
(assert (not (= x25 x28)))
(assert (not (= x26 x27)))
(assert (not (= x26 x28)))
(assert (not (= x27 x28)))
(assert (not (= x30 x31)))
(assert (not (= x30 (_ bv4 8))))
(assert (not (= x30 (_ bv6 8))))
(assert (not (= x30 (_ bv7 8))))
(assert (not (= x30 x35)))
(assert (not (= x30 x36)))
(assert (not (= x30 x37)))
(assert (not (= x30 x38)))
(assert (not (= x31 (_ bv4 8))))
(assert (not (= x31 (_ bv6 8))))
(assert (not (= x31 (_ bv7 8))))
(assert (not (= x31 x35)))
(assert (not (= x31 x36)))
(assert (not (= x31 x37)))
(assert (not (= x31 x38)))
(assert (not (= (_ bv4 8) (_ bv6 8))))
(assert (not (= (_ bv4 8) (_ bv7 8))))
(assert (not (= (_ bv4 8) x35)))
(assert (not (= (_ bv4 8) x36)))
(assert (not (= (_ bv4 8) x37)))
(assert (not (= (_ bv4 8) x38)))
(assert (not (= (_ bv6 8) (_ bv7 8))))
(assert (not (= (_ bv6 8) x35)))
(assert (not (= (_ bv6 8) x36)))
(assert (not (= (_ bv6 8) x37)))
(assert (not (= (_ bv6 8) x38)))
(assert (not (= (_ bv7 8) x35)))
(assert (not (= (_ bv7 8) x36)))
(assert (not (= (_ bv7 8) x37)))
(assert (not (= (_ bv7 8) x38)))
(assert (not (= x35 x36)))
(assert (not (= x35 x37)))
(assert (not (= x35 x38)))
(assert (not (= x36 x37)))
(assert (not (= x36 x38)))
(assert (not (= x37 x38)))
(assert (not (= (_ bv9 8) x41)))
(assert (not (= (_ bv9 8) (_ bv1 8))))
(assert (not (= (_ bv9 8) (_ bv4 8))))
(assert (not (= (_ bv9 8) x44)))
(assert (not (= (_ bv9 8) (_ bv3 8))))
(assert (not (= (_ bv9 8) x46)))
(assert (not (= (_ bv9 8) x47)))
(assert (not (= (_ bv9 8) x48)))
(assert (not (= x41 (_ bv1 8))))
(assert (not (= x41 (_ bv4 8))))
(assert (not (= x41 x44)))
(assert (not (= x41 (_ bv3 8))))
(assert (not (= x41 x46)))
(assert (not (= x41 x47)))
(assert (not (= x41 x48)))
(assert (not (= (_ bv1 8) (_ bv4 8))))
(assert (not (= (_ bv1 8) x44)))
(assert (not (= (_ bv1 8) (_ bv3 8))))
(assert (not (= (_ bv1 8) x46)))
(assert (not (= (_ bv1 8) x47)))
(assert (not (= (_ bv1 8) x48)))
(assert (not (= (_ bv4 8) x44)))
(assert (not (= (_ bv4 8) (_ bv3 8))))
(assert (not (= (_ bv4 8) x46)))
(assert (not (= (_ bv4 8) x47)))
(assert (not (= (_ bv4 8) x48)))
(assert (not (= x44 (_ bv3 8))))
(assert (not (= x44 x46)))
(assert (not (= x44 x47)))
(assert (not (= x44 x48)))
(assert (not (= (_ bv3 8) x46)))
(assert (not (= (_ bv3 8) x47)))
(assert (not (= (_ bv3 8) x48)))
(assert (not (= x46 x47)))
(assert (not (= x46 x48)))
(assert (not (= x47 x48)))
(assert (not (= (_ bv5 8) x51)))
(assert (not (= (_ bv5 8) x52)))
(assert (not (= (_ bv5 8) (_ bv2 8))))
(assert (not (= (_ bv5 8) x54)))
(assert (not (= (_ bv5 8) x55)))
(assert (not (= (_ bv5 8) (_ bv9 8))))
(assert (not (= (_ bv5 8) x57)))
(assert (not (= (_ bv5 8) (_ bv6 8))))
(assert (not (= x51 x52)))
(assert (not (= x51 (_ bv2 8))))
(assert (not (= x51 x54)))
(assert (not (= x51 x55)))
(assert (not (= x51 (_ bv9 8))))
(assert (not (= x51 x57)))
(assert (not (= x51 (_ bv6 8))))
(assert (not (= x52 (_ bv2 8))))
(assert (not (= x52 x54)))
(assert (not (= x52 x55)))
(assert (not (= x52 (_ bv9 8))))
(assert (not (= x52 x57)))
(assert (not (= x52 (_ bv6 8))))
(assert (not (= (_ bv2 8) x54)))
(assert (not (= (_ bv2 8) x55)))
(assert (not (= (_ bv2 8) (_ bv9 8))))
(assert (not (= (_ bv2 8) x57)))
(assert (not (= (_ bv2 8) (_ bv6 8))))
(assert (not (= x54 x55)))
(assert (not (= x54 (_ bv9 8))))
(assert (not (= x54 x57)))
(assert (not (= x54 (_ bv6 8))))
(assert (not (= x55 (_ bv9 8))))
(assert (not (= x55 x57)))
(assert (not (= x55 (_ bv6 8))))
(assert (not (= (_ bv9 8) x57)))
(assert (not (= (_ bv9 8) (_ bv6 8))))
(assert (not (= x57 (_ bv6 8))))
(assert (not (= x60 (_ bv7 8))))
(assert (not (= x60 x62)))
(assert (not (= x60 x63)))
(assert (not (= x60 x64)))
(assert (not (= x60 x65)))
(assert (not (= x60 (_ bv1 8))))
(assert (not (= x60 (_ bv5 8))))
(assert (not (= x60 x68)))
(assert (not (= (_ bv7 8) x62)))
(assert (not (= (_ bv7 8) x63)))
(assert (not (= (_ bv7 8) x64)))
(assert (not (= (_ bv7 8) x65)))
(assert (not (= (_ bv7 8) (_ bv1 8))))
(assert (not (= (_ bv7 8) (_ bv5 8))))
(assert (not (= (_ bv7 8) x68)))
(assert (not (= x62 x63)))
(assert (not (= x62 x64)))
(assert (not (= x62 x65)))
(assert (not (= x62 (_ bv1 8))))
(assert (not (= x62 (_ bv5 8))))
(assert (not (= x62 x68)))
(assert (not (= x63 x64)))
(assert (not (= x63 x65)))
(assert (not (= x63 (_ bv1 8))))
(assert (not (= x63 (_ bv5 8))))
(assert (not (= x63 x68)))
(assert (not (= x64 x65)))
(assert (not (= x64 (_ bv1 8))))
(assert (not (= x64 (_ bv5 8))))
(assert (not (= x64 x68)))
(assert (not (= x65 (_ bv1 8))))
(assert (not (= x65 (_ bv5 8))))
(assert (not (= x65 x68)))
(assert (not (= (_ bv1 8) (_ bv5 8))))
(assert (not (= (_ bv1 8) x68)))
(assert (not (= (_ bv5 8) x68)))
(assert (not (= x70 x71)))
(assert (not (= x70 x72)))
(assert (not (= x70 (_ bv9 8))))
(assert (not (= x70 x74)))
(assert (not (= x70 (_ bv5 8))))
(assert (not (= x70 x76)))
(assert (not (= x70 (_ bv8 8))))
(assert (not (= x70 (_ bv4 8))))
(assert (not (= x71 x72)))
(assert (not (= x71 (_ bv9 8))))
(assert (not (= x71 x74)))
(assert (not (= x71 (_ bv5 8))))
(assert (not (= x71 x76)))
(assert (not (= x71 (_ bv8 8))))
(assert (not (= x71 (_ bv4 8))))
(assert (not (= x72 (_ bv9 8))))
(assert (not (= x72 x74)))
(assert (not (= x72 (_ bv5 8))))
(assert (not (= x72 x76)))
(assert (not (= x72 (_ bv8 8))))
(assert (not (= x72 (_ bv4 8))))
(assert (not (= (_ bv9 8) x74)))
(assert (not (= (_ bv9 8) (_ bv5 8))))
(assert (not (= (_ bv9 8) x76)))
(assert (not (= (_ bv9 8) (_ bv8 8))))
(assert (not (= (_ bv9 8) (_ bv4 8))))
(assert (not (= x74 (_ bv5 8))))
(assert (not (= x74 x76)))
(assert (not (= x74 (_ bv8 8))))
(assert (not (= x74 (_ bv4 8))))
(assert (not (= (_ bv5 8) x76)))
(assert (not (= (_ bv5 8) (_ bv8 8))))
(assert (not (= (_ bv5 8) (_ bv4 8))))
(assert (not (= x76 (_ bv8 8))))
(assert (not (= x76 (_ bv4 8))))
(assert (not (= (_ bv8 8) (_ bv4 8))))
(assert (not (= (_ bv4 8) x81)))
(assert (not (= (_ bv4 8) (_ bv8 8))))
(assert (not (= (_ bv4 8) x83)))
(assert (not (= (_ bv4 8) (_ bv2 8))))
(assert (not (= (_ bv4 8) (_ bv1 8))))
(assert (not (= (_ bv4 8) (_ bv6 8))))
(assert (not (= (_ bv4 8) x87)))
(assert (not (= (_ bv4 8) (_ bv9 8))))
(assert (not (= x81 (_ bv8 8))))
(assert (not (= x81 x83)))
(assert (not (= x81 (_ bv2 8))))
(assert (not (= x81 (_ bv1 8))))
(assert (not (= x81 (_ bv6 8))))
(assert (not (= x81 x87)))
(assert (not (= x81 (_ bv9 8))))
(assert (not (= (_ bv8 8) x83)))
(assert (not (= (_ bv8 8) (_ bv2 8))))
(assert (not (= (_ bv8 8) (_ bv1 8))))
(assert (not (= (_ bv8 8) (_ bv6 8))))
(assert (not (= (_ bv8 8) x87)))
(assert (not (= (_ bv8 8) (_ bv9 8))))
(assert (not (= x83 (_ bv2 8))))
(assert (not (= x83 (_ bv1 8))))
(assert (not (= x83 (_ bv6 8))))
(assert (not (= x83 x87)))
(assert (not (= x83 (_ bv9 8))))
(assert (not (= (_ bv2 8) (_ bv1 8))))
(assert (not (= (_ bv2 8) (_ bv6 8))))
(assert (not (= (_ bv2 8) x87)))
(assert (not (= (_ bv2 8) (_ bv9 8))))
(assert (not (= (_ bv1 8) (_ bv6 8))))
(assert (not (= (_ bv1 8) x87)))
(assert (not (= (_ bv1 8) (_ bv9 8))))
(assert (not (= (_ bv6 8) x87)))
(assert (not (= (_ bv6 8) (_ bv9 8))))
(assert (not (= x87 (_ bv9 8))))
(assert (not (= x00 x10)))
(assert (not (= x00 (_ bv1 8))))
(assert (not (= x00 x30)))
(assert (not (= x00 (_ bv9 8))))
(assert (not (= x00 (_ bv5 8))))
(assert (not (= x00 x60)))
(assert (not (= x00 x70)))
(assert (not (= x00 (_ bv4 8))))
(assert (not (= x10 (_ bv1 8))))
(assert (not (= x10 x30)))
(assert (not (= x10 (_ bv9 8))))
(assert (not (= x10 (_ bv5 8))))
(assert (not (= x10 x60)))
(assert (not (= x10 x70)))
(assert (not (= x10 (_ bv4 8))))
(assert (not (= (_ bv1 8) x30)))
(assert (not (= (_ bv1 8) (_ bv9 8))))
(assert (not (= (_ bv1 8) (_ bv5 8))))
(assert (not (= (_ bv1 8) x60)))
(assert (not (= (_ bv1 8) x70)))
(assert (not (= (_ bv1 8) (_ bv4 8))))
(assert (not (= x30 (_ bv9 8))))
(assert (not (= x30 (_ bv5 8))))
(assert (not (= x30 x60)))
(assert (not (= x30 x70)))
(assert (not (= x30 (_ bv4 8))))
(assert (not (= (_ bv9 8) (_ bv5 8))))
(assert (not (= (_ bv9 8) x60)))
(assert (not (= (_ bv9 8) x70)))
(assert (not (= (_ bv9 8) (_ bv4 8))))
(assert (not (= (_ bv5 8) x60)))
(assert (not (= (_ bv5 8) x70)))
(assert (not (= (_ bv5 8) (_ bv4 8))))
(assert (not (= x60 x70)))
(assert (not (= x60 (_ bv4 8))))
(assert (not (= x70 (_ bv4 8))))
(assert (not (= x01 (_ bv8 8))))
(assert (not (= x01 x21)))
(assert (not (= x01 x31)))
(assert (not (= x01 x41)))
(assert (not (= x01 x51)))
(assert (not (= x01 (_ bv7 8))))
(assert (not (= x01 x71)))
(assert (not (= x01 x81)))
(assert (not (= (_ bv8 8) x21)))
(assert (not (= (_ bv8 8) x31)))
(assert (not (= (_ bv8 8) x41)))
(assert (not (= (_ bv8 8) x51)))
(assert (not (= (_ bv8 8) (_ bv7 8))))
(assert (not (= (_ bv8 8) x71)))
(assert (not (= (_ bv8 8) x81)))
(assert (not (= x21 x31)))
(assert (not (= x21 x41)))
(assert (not (= x21 x51)))
(assert (not (= x21 (_ bv7 8))))
(assert (not (= x21 x71)))
(assert (not (= x21 x81)))
(assert (not (= x31 x41)))
(assert (not (= x31 x51)))
(assert (not (= x31 (_ bv7 8))))
(assert (not (= x31 x71)))
(assert (not (= x31 x81)))
(assert (not (= x41 x51)))
(assert (not (= x41 (_ bv7 8))))
(assert (not (= x41 x71)))
(assert (not (= x41 x81)))
(assert (not (= x51 (_ bv7 8))))
(assert (not (= x51 x71)))
(assert (not (= x51 x81)))
(assert (not (= (_ bv7 8) x71)))
(assert (not (= (_ bv7 8) x81)))
(assert (not (= x71 x81)))
(assert (not (= x02 (_ bv2 8))))
(assert (not (= x02 (_ bv3 8))))
(assert (not (= x02 (_ bv4 8))))
(assert (not (= x02 (_ bv1 8))))
(assert (not (= x02 x52)))
(assert (not (= x02 x62)))
(assert (not (= x02 x72)))
(assert (not (= x02 (_ bv8 8))))
(assert (not (= (_ bv2 8) (_ bv3 8))))
(assert (not (= (_ bv2 8) (_ bv4 8))))
(assert (not (= (_ bv2 8) (_ bv1 8))))
(assert (not (= (_ bv2 8) x52)))
(assert (not (= (_ bv2 8) x62)))
(assert (not (= (_ bv2 8) x72)))
(assert (not (= (_ bv2 8) (_ bv8 8))))
(assert (not (= (_ bv3 8) (_ bv4 8))))
(assert (not (= (_ bv3 8) (_ bv1 8))))
(assert (not (= (_ bv3 8) x52)))
(assert (not (= (_ bv3 8) x62)))
(assert (not (= (_ bv3 8) x72)))
(assert (not (= (_ bv3 8) (_ bv8 8))))
(assert (not (= (_ bv4 8) (_ bv1 8))))
(assert (not (= (_ bv4 8) x52)))
(assert (not (= (_ bv4 8) x62)))
(assert (not (= (_ bv4 8) x72)))
(assert (not (= (_ bv4 8) (_ bv8 8))))
(assert (not (= (_ bv1 8) x52)))
(assert (not (= (_ bv1 8) x62)))
(assert (not (= (_ bv1 8) x72)))
(assert (not (= (_ bv1 8) (_ bv8 8))))
(assert (not (= x52 x62)))
(assert (not (= x52 x72)))
(assert (not (= x52 (_ bv8 8))))
(assert (not (= x62 x72)))
(assert (not (= x62 (_ bv8 8))))
(assert (not (= x72 (_ bv8 8))))
(assert (not (= (_ bv1 8) x13)))
(assert (not (= (_ bv1 8) x23)))
(assert (not (= (_ bv1 8) (_ bv6 8))))
(assert (not (= (_ bv1 8) (_ bv4 8))))
(assert (not (= (_ bv1 8) (_ bv2 8))))
(assert (not (= (_ bv1 8) x63)))
(assert (not (= (_ bv1 8) (_ bv9 8))))
(assert (not (= (_ bv1 8) x83)))
(assert (not (= x13 x23)))
(assert (not (= x13 (_ bv6 8))))
(assert (not (= x13 (_ bv4 8))))
(assert (not (= x13 (_ bv2 8))))
(assert (not (= x13 x63)))
(assert (not (= x13 (_ bv9 8))))
(assert (not (= x13 x83)))
(assert (not (= x23 (_ bv6 8))))
(assert (not (= x23 (_ bv4 8))))
(assert (not (= x23 (_ bv2 8))))
(assert (not (= x23 x63)))
(assert (not (= x23 (_ bv9 8))))
(assert (not (= x23 x83)))
(assert (not (= (_ bv6 8) (_ bv4 8))))
(assert (not (= (_ bv6 8) (_ bv2 8))))
(assert (not (= (_ bv6 8) x63)))
(assert (not (= (_ bv6 8) (_ bv9 8))))
(assert (not (= (_ bv6 8) x83)))
(assert (not (= (_ bv4 8) (_ bv2 8))))
(assert (not (= (_ bv4 8) x63)))
(assert (not (= (_ bv4 8) (_ bv9 8))))
(assert (not (= (_ bv4 8) x83)))
(assert (not (= (_ bv2 8) x63)))
(assert (not (= (_ bv2 8) (_ bv9 8))))
(assert (not (= (_ bv2 8) x83)))
(assert (not (= x63 (_ bv9 8))))
(assert (not (= x63 x83)))
(assert (not (= (_ bv9 8) x83)))
(assert (not (= (_ bv8 8) (_ bv6 8))))
(assert (not (= (_ bv8 8) x24)))
(assert (not (= (_ bv8 8) (_ bv7 8))))
(assert (not (= (_ bv8 8) x44)))
(assert (not (= (_ bv8 8) x54)))
(assert (not (= (_ bv8 8) x64)))
(assert (not (= (_ bv8 8) x74)))
(assert (not (= (_ bv8 8) (_ bv2 8))))
(assert (not (= (_ bv6 8) x24)))
(assert (not (= (_ bv6 8) (_ bv7 8))))
(assert (not (= (_ bv6 8) x44)))
(assert (not (= (_ bv6 8) x54)))
(assert (not (= (_ bv6 8) x64)))
(assert (not (= (_ bv6 8) x74)))
(assert (not (= (_ bv6 8) (_ bv2 8))))
(assert (not (= x24 (_ bv7 8))))
(assert (not (= x24 x44)))
(assert (not (= x24 x54)))
(assert (not (= x24 x64)))
(assert (not (= x24 x74)))
(assert (not (= x24 (_ bv2 8))))
(assert (not (= (_ bv7 8) x44)))
(assert (not (= (_ bv7 8) x54)))
(assert (not (= (_ bv7 8) x64)))
(assert (not (= (_ bv7 8) x74)))
(assert (not (= (_ bv7 8) (_ bv2 8))))
(assert (not (= x44 x54)))
(assert (not (= x44 x64)))
(assert (not (= x44 x74)))
(assert (not (= x44 (_ bv2 8))))
(assert (not (= x54 x64)))
(assert (not (= x54 x74)))
(assert (not (= x54 (_ bv2 8))))
(assert (not (= x64 x74)))
(assert (not (= x64 (_ bv2 8))))
(assert (not (= x74 (_ bv2 8))))
(assert (not (= x05 x15)))
(assert (not (= x05 x25)))
(assert (not (= x05 x35)))
(assert (not (= x05 (_ bv3 8))))
(assert (not (= x05 x55)))
(assert (not (= x05 x65)))
(assert (not (= x05 (_ bv5 8))))
(assert (not (= x05 (_ bv1 8))))
(assert (not (= x15 x25)))
(assert (not (= x15 x35)))
(assert (not (= x15 (_ bv3 8))))
(assert (not (= x15 x55)))
(assert (not (= x15 x65)))
(assert (not (= x15 (_ bv5 8))))
(assert (not (= x15 (_ bv1 8))))
(assert (not (= x25 x35)))
(assert (not (= x25 (_ bv3 8))))
(assert (not (= x25 x55)))
(assert (not (= x25 x65)))
(assert (not (= x25 (_ bv5 8))))
(assert (not (= x25 (_ bv1 8))))
(assert (not (= x35 (_ bv3 8))))
(assert (not (= x35 x55)))
(assert (not (= x35 x65)))
(assert (not (= x35 (_ bv5 8))))
(assert (not (= x35 (_ bv1 8))))
(assert (not (= (_ bv3 8) x55)))
(assert (not (= (_ bv3 8) x65)))
(assert (not (= (_ bv3 8) (_ bv5 8))))
(assert (not (= (_ bv3 8) (_ bv1 8))))
(assert (not (= x55 x65)))
(assert (not (= x55 (_ bv5 8))))
(assert (not (= x55 (_ bv1 8))))
(assert (not (= x65 (_ bv5 8))))
(assert (not (= x65 (_ bv1 8))))
(assert (not (= (_ bv5 8) (_ bv1 8))))
(assert (not (= x06 (_ bv5 8))))
(assert (not (= x06 x26)))
(assert (not (= x06 x36)))
(assert (not (= x06 x46)))
(assert (not (= x06 (_ bv9 8))))
(assert (not (= x06 (_ bv1 8))))
(assert (not (= x06 x76)))
(assert (not (= x06 (_ bv6 8))))
(assert (not (= (_ bv5 8) x26)))
(assert (not (= (_ bv5 8) x36)))
(assert (not (= (_ bv5 8) x46)))
(assert (not (= (_ bv5 8) (_ bv9 8))))
(assert (not (= (_ bv5 8) (_ bv1 8))))
(assert (not (= (_ bv5 8) x76)))
(assert (not (= (_ bv5 8) (_ bv6 8))))
(assert (not (= x26 x36)))
(assert (not (= x26 x46)))
(assert (not (= x26 (_ bv9 8))))
(assert (not (= x26 (_ bv1 8))))
(assert (not (= x26 x76)))
(assert (not (= x26 (_ bv6 8))))
(assert (not (= x36 x46)))
(assert (not (= x36 (_ bv9 8))))
(assert (not (= x36 (_ bv1 8))))
(assert (not (= x36 x76)))
(assert (not (= x36 (_ bv6 8))))
(assert (not (= x46 (_ bv9 8))))
(assert (not (= x46 (_ bv1 8))))
(assert (not (= x46 x76)))
(assert (not (= x46 (_ bv6 8))))
(assert (not (= (_ bv9 8) (_ bv1 8))))
(assert (not (= (_ bv9 8) x76)))
(assert (not (= (_ bv9 8) (_ bv6 8))))
(assert (not (= (_ bv1 8) x76)))
(assert (not (= (_ bv1 8) (_ bv6 8))))
(assert (not (= x76 (_ bv6 8))))
(assert (not (= (_ bv7 8) x17)))
(assert (not (= (_ bv7 8) x27)))
(assert (not (= (_ bv7 8) x37)))
(assert (not (= (_ bv7 8) x47)))
(assert (not (= (_ bv7 8) x57)))
(assert (not (= (_ bv7 8) (_ bv5 8))))
(assert (not (= (_ bv7 8) (_ bv8 8))))
(assert (not (= (_ bv7 8) x87)))
(assert (not (= x17 x27)))
(assert (not (= x17 x37)))
(assert (not (= x17 x47)))
(assert (not (= x17 x57)))
(assert (not (= x17 (_ bv5 8))))
(assert (not (= x17 (_ bv8 8))))
(assert (not (= x17 x87)))
(assert (not (= x27 x37)))
(assert (not (= x27 x47)))
(assert (not (= x27 x57)))
(assert (not (= x27 (_ bv5 8))))
(assert (not (= x27 (_ bv8 8))))
(assert (not (= x27 x87)))
(assert (not (= x37 x47)))
(assert (not (= x37 x57)))
(assert (not (= x37 (_ bv5 8))))
(assert (not (= x37 (_ bv8 8))))
(assert (not (= x37 x87)))
(assert (not (= x47 x57)))
(assert (not (= x47 (_ bv5 8))))
(assert (not (= x47 (_ bv8 8))))
(assert (not (= x47 x87)))
(assert (not (= x57 (_ bv5 8))))
(assert (not (= x57 (_ bv8 8))))
(assert (not (= x57 x87)))
(assert (not (= (_ bv5 8) (_ bv8 8))))
(assert (not (= (_ bv5 8) x87)))
(assert (not (= (_ bv8 8) x87)))
(assert (not (= x08 x18)))
(assert (not (= x08 x28)))
(assert (not (= x08 x38)))
(assert (not (= x08 x48)))
(assert (not (= x08 (_ bv6 8))))
(assert (not (= x08 x68)))
(assert (not (= x08 (_ bv4 8))))
(assert (not (= x08 (_ bv9 8))))
(assert (not (= x18 x28)))
(assert (not (= x18 x38)))
(assert (not (= x18 x48)))
(assert (not (= x18 (_ bv6 8))))
(assert (not (= x18 x68)))
(assert (not (= x18 (_ bv4 8))))
(assert (not (= x18 (_ bv9 8))))
(assert (not (= x28 x38)))
(assert (not (= x28 x48)))
(assert (not (= x28 (_ bv6 8))))
(assert (not (= x28 x68)))
(assert (not (= x28 (_ bv4 8))))
(assert (not (= x28 (_ bv9 8))))
(assert (not (= x38 x48)))
(assert (not (= x38 (_ bv6 8))))
(assert (not (= x38 x68)))
(assert (not (= x38 (_ bv4 8))))
(assert (not (= x38 (_ bv9 8))))
(assert (not (= x48 (_ bv6 8))))
(assert (not (= x48 x68)))
(assert (not (= x48 (_ bv4 8))))
(assert (not (= x48 (_ bv9 8))))
(assert (not (= (_ bv6 8) x68)))
(assert (not (= (_ bv6 8) (_ bv4 8))))
(assert (not (= (_ bv6 8) (_ bv9 8))))
(assert (not (= x68 (_ bv4 8))))
(assert (not (= x68 (_ bv9 8))))
(assert (not (= (_ bv4 8) (_ bv9 8))))
(assert (not (= x00 x01)))
(assert (not (= x00 x02)))
(assert (not (= x00 x10)))
(assert (not (= x00 (_ bv8 8))))
(assert (not (= x00 (_ bv2 8))))
(assert (not (= x00 (_ bv1 8))))
(assert (not (= x00 x21)))
(assert (not (= x00 (_ bv3 8))))
(assert (not (= x01 x02)))
(assert (not (= x01 x10)))
(assert (not (= x01 (_ bv8 8))))
(assert (not (= x01 (_ bv2 8))))
(assert (not (= x01 (_ bv1 8))))
(assert (not (= x01 x21)))
(assert (not (= x01 (_ bv3 8))))
(assert (not (= x02 x10)))
(assert (not (= x02 (_ bv8 8))))
(assert (not (= x02 (_ bv2 8))))
(assert (not (= x02 (_ bv1 8))))
(assert (not (= x02 x21)))
(assert (not (= x02 (_ bv3 8))))
(assert (not (= x10 (_ bv8 8))))
(assert (not (= x10 (_ bv2 8))))
(assert (not (= x10 (_ bv1 8))))
(assert (not (= x10 x21)))
(assert (not (= x10 (_ bv3 8))))
(assert (not (= (_ bv8 8) (_ bv2 8))))
(assert (not (= (_ bv8 8) (_ bv1 8))))
(assert (not (= (_ bv8 8) x21)))
(assert (not (= (_ bv8 8) (_ bv3 8))))
(assert (not (= (_ bv2 8) (_ bv1 8))))
(assert (not (= (_ bv2 8) x21)))
(assert (not (= (_ bv2 8) (_ bv3 8))))
(assert (not (= (_ bv1 8) x21)))
(assert (not (= (_ bv1 8) (_ bv3 8))))
(assert (not (= x21 (_ bv3 8))))
(assert (not (= (_ bv1 8) (_ bv8 8))))
(assert (not (= (_ bv1 8) x05)))
(assert (not (= (_ bv1 8) x13)))
(assert (not (= (_ bv1 8) (_ bv6 8))))
(assert (not (= (_ bv1 8) x15)))
(assert (not (= (_ bv1 8) x23)))
(assert (not (= (_ bv1 8) x24)))
(assert (not (= (_ bv1 8) x25)))
(assert (not (= (_ bv8 8) x05)))
(assert (not (= (_ bv8 8) x13)))
(assert (not (= (_ bv8 8) (_ bv6 8))))
(assert (not (= (_ bv8 8) x15)))
(assert (not (= (_ bv8 8) x23)))
(assert (not (= (_ bv8 8) x24)))
(assert (not (= (_ bv8 8) x25)))
(assert (not (= x05 x13)))
(assert (not (= x05 (_ bv6 8))))
(assert (not (= x05 x15)))
(assert (not (= x05 x23)))
(assert (not (= x05 x24)))
(assert (not (= x05 x25)))
(assert (not (= x13 (_ bv6 8))))
(assert (not (= x13 x15)))
(assert (not (= x13 x23)))
(assert (not (= x13 x24)))
(assert (not (= x13 x25)))
(assert (not (= (_ bv6 8) x15)))
(assert (not (= (_ bv6 8) x23)))
(assert (not (= (_ bv6 8) x24)))
(assert (not (= (_ bv6 8) x25)))
(assert (not (= x15 x23)))
(assert (not (= x15 x24)))
(assert (not (= x15 x25)))
(assert (not (= x23 x24)))
(assert (not (= x23 x25)))
(assert (not (= x24 x25)))
(assert (not (= x06 (_ bv7 8))))
(assert (not (= x06 x08)))
(assert (not (= x06 (_ bv5 8))))
(assert (not (= x06 x17)))
(assert (not (= x06 x18)))
(assert (not (= x06 x26)))
(assert (not (= x06 x27)))
(assert (not (= x06 x28)))
(assert (not (= (_ bv7 8) x08)))
(assert (not (= (_ bv7 8) (_ bv5 8))))
(assert (not (= (_ bv7 8) x17)))
(assert (not (= (_ bv7 8) x18)))
(assert (not (= (_ bv7 8) x26)))
(assert (not (= (_ bv7 8) x27)))
(assert (not (= (_ bv7 8) x28)))
(assert (not (= x08 (_ bv5 8))))
(assert (not (= x08 x17)))
(assert (not (= x08 x18)))
(assert (not (= x08 x26)))
(assert (not (= x08 x27)))
(assert (not (= x08 x28)))
(assert (not (= (_ bv5 8) x17)))
(assert (not (= (_ bv5 8) x18)))
(assert (not (= (_ bv5 8) x26)))
(assert (not (= (_ bv5 8) x27)))
(assert (not (= (_ bv5 8) x28)))
(assert (not (= x17 x18)))
(assert (not (= x17 x26)))
(assert (not (= x17 x27)))
(assert (not (= x17 x28)))
(assert (not (= x18 x26)))
(assert (not (= x18 x27)))
(assert (not (= x18 x28)))
(assert (not (= x26 x27)))
(assert (not (= x26 x28)))
(assert (not (= x27 x28)))
(assert (not (= x30 x31)))
(assert (not (= x30 (_ bv4 8))))
(assert (not (= x30 (_ bv9 8))))
(assert (not (= x30 x41)))
(assert (not (= x30 (_ bv1 8))))
(assert (not (= x30 (_ bv5 8))))
(assert (not (= x30 x51)))
(assert (not (= x30 x52)))
(assert (not (= x31 (_ bv4 8))))
(assert (not (= x31 (_ bv9 8))))
(assert (not (= x31 x41)))
(assert (not (= x31 (_ bv1 8))))
(assert (not (= x31 (_ bv5 8))))
(assert (not (= x31 x51)))
(assert (not (= x31 x52)))
(assert (not (= (_ bv4 8) (_ bv9 8))))
(assert (not (= (_ bv4 8) x41)))
(assert (not (= (_ bv4 8) (_ bv1 8))))
(assert (not (= (_ bv4 8) (_ bv5 8))))
(assert (not (= (_ bv4 8) x51)))
(assert (not (= (_ bv4 8) x52)))
(assert (not (= (_ bv9 8) x41)))
(assert (not (= (_ bv9 8) (_ bv1 8))))
(assert (not (= (_ bv9 8) (_ bv5 8))))
(assert (not (= (_ bv9 8) x51)))
(assert (not (= (_ bv9 8) x52)))
(assert (not (= x41 (_ bv1 8))))
(assert (not (= x41 (_ bv5 8))))
(assert (not (= x41 x51)))
(assert (not (= x41 x52)))
(assert (not (= (_ bv1 8) (_ bv5 8))))
(assert (not (= (_ bv1 8) x51)))
(assert (not (= (_ bv1 8) x52)))
(assert (not (= (_ bv5 8) x51)))
(assert (not (= (_ bv5 8) x52)))
(assert (not (= x51 x52)))
(assert (not (= (_ bv6 8) (_ bv7 8))))
(assert (not (= (_ bv6 8) x35)))
(assert (not (= (_ bv6 8) (_ bv4 8))))
(assert (not (= (_ bv6 8) x44)))
(assert (not (= (_ bv6 8) (_ bv3 8))))
(assert (not (= (_ bv6 8) (_ bv2 8))))
(assert (not (= (_ bv6 8) x54)))
(assert (not (= (_ bv6 8) x55)))
(assert (not (= (_ bv7 8) x35)))
(assert (not (= (_ bv7 8) (_ bv4 8))))
(assert (not (= (_ bv7 8) x44)))
(assert (not (= (_ bv7 8) (_ bv3 8))))
(assert (not (= (_ bv7 8) (_ bv2 8))))
(assert (not (= (_ bv7 8) x54)))
(assert (not (= (_ bv7 8) x55)))
(assert (not (= x35 (_ bv4 8))))
(assert (not (= x35 x44)))
(assert (not (= x35 (_ bv3 8))))
(assert (not (= x35 (_ bv2 8))))
(assert (not (= x35 x54)))
(assert (not (= x35 x55)))
(assert (not (= (_ bv4 8) x44)))
(assert (not (= (_ bv4 8) (_ bv3 8))))
(assert (not (= (_ bv4 8) (_ bv2 8))))
(assert (not (= (_ bv4 8) x54)))
(assert (not (= (_ bv4 8) x55)))
(assert (not (= x44 (_ bv3 8))))
(assert (not (= x44 (_ bv2 8))))
(assert (not (= x44 x54)))
(assert (not (= x44 x55)))
(assert (not (= (_ bv3 8) (_ bv2 8))))
(assert (not (= (_ bv3 8) x54)))
(assert (not (= (_ bv3 8) x55)))
(assert (not (= (_ bv2 8) x54)))
(assert (not (= (_ bv2 8) x55)))
(assert (not (= x54 x55)))
(assert (not (= x36 x37)))
(assert (not (= x36 x38)))
(assert (not (= x36 x46)))
(assert (not (= x36 x47)))
(assert (not (= x36 x48)))
(assert (not (= x36 (_ bv9 8))))
(assert (not (= x36 x57)))
(assert (not (= x36 (_ bv6 8))))
(assert (not (= x37 x38)))
(assert (not (= x37 x46)))
(assert (not (= x37 x47)))
(assert (not (= x37 x48)))
(assert (not (= x37 (_ bv9 8))))
(assert (not (= x37 x57)))
(assert (not (= x37 (_ bv6 8))))
(assert (not (= x38 x46)))
(assert (not (= x38 x47)))
(assert (not (= x38 x48)))
(assert (not (= x38 (_ bv9 8))))
(assert (not (= x38 x57)))
(assert (not (= x38 (_ bv6 8))))
(assert (not (= x46 x47)))
(assert (not (= x46 x48)))
(assert (not (= x46 (_ bv9 8))))
(assert (not (= x46 x57)))
(assert (not (= x46 (_ bv6 8))))
(assert (not (= x47 x48)))
(assert (not (= x47 (_ bv9 8))))
(assert (not (= x47 x57)))
(assert (not (= x47 (_ bv6 8))))
(assert (not (= x48 (_ bv9 8))))
(assert (not (= x48 x57)))
(assert (not (= x48 (_ bv6 8))))
(assert (not (= (_ bv9 8) x57)))
(assert (not (= (_ bv9 8) (_ bv6 8))))
(assert (not (= x57 (_ bv6 8))))
(assert (not (= x60 (_ bv7 8))))
(assert (not (= x60 x62)))
(assert (not (= x60 x70)))
(assert (not (= x60 x71)))
(assert (not (= x60 x72)))
(assert (not (= x60 (_ bv4 8))))
(assert (not (= x60 x81)))
(assert (not (= x60 (_ bv8 8))))
(assert (not (= (_ bv7 8) x62)))
(assert (not (= (_ bv7 8) x70)))
(assert (not (= (_ bv7 8) x71)))
(assert (not (= (_ bv7 8) x72)))
(assert (not (= (_ bv7 8) (_ bv4 8))))
(assert (not (= (_ bv7 8) x81)))
(assert (not (= (_ bv7 8) (_ bv8 8))))
(assert (not (= x62 x70)))
(assert (not (= x62 x71)))
(assert (not (= x62 x72)))
(assert (not (= x62 (_ bv4 8))))
(assert (not (= x62 x81)))
(assert (not (= x62 (_ bv8 8))))
(assert (not (= x70 x71)))
(assert (not (= x70 x72)))
(assert (not (= x70 (_ bv4 8))))
(assert (not (= x70 x81)))
(assert (not (= x70 (_ bv8 8))))
(assert (not (= x71 x72)))
(assert (not (= x71 (_ bv4 8))))
(assert (not (= x71 x81)))
(assert (not (= x71 (_ bv8 8))))
(assert (not (= x72 (_ bv4 8))))
(assert (not (= x72 x81)))
(assert (not (= x72 (_ bv8 8))))
(assert (not (= (_ bv4 8) x81)))
(assert (not (= (_ bv4 8) (_ bv8 8))))
(assert (not (= x81 (_ bv8 8))))
(assert (not (= x63 x64)))
(assert (not (= x63 x65)))
(assert (not (= x63 (_ bv9 8))))
(assert (not (= x63 x74)))
(assert (not (= x63 (_ bv5 8))))
(assert (not (= x63 x83)))
(assert (not (= x63 (_ bv2 8))))
(assert (not (= x63 (_ bv1 8))))
(assert (not (= x64 x65)))
(assert (not (= x64 (_ bv9 8))))
(assert (not (= x64 x74)))
(assert (not (= x64 (_ bv5 8))))
(assert (not (= x64 x83)))
(assert (not (= x64 (_ bv2 8))))
(assert (not (= x64 (_ bv1 8))))
(assert (not (= x65 (_ bv9 8))))
(assert (not (= x65 x74)))
(assert (not (= x65 (_ bv5 8))))
(assert (not (= x65 x83)))
(assert (not (= x65 (_ bv2 8))))
(assert (not (= x65 (_ bv1 8))))
(assert (not (= (_ bv9 8) x74)))
(assert (not (= (_ bv9 8) (_ bv5 8))))
(assert (not (= (_ bv9 8) x83)))
(assert (not (= (_ bv9 8) (_ bv2 8))))
(assert (not (= (_ bv9 8) (_ bv1 8))))
(assert (not (= x74 (_ bv5 8))))
(assert (not (= x74 x83)))
(assert (not (= x74 (_ bv2 8))))
(assert (not (= x74 (_ bv1 8))))
(assert (not (= (_ bv5 8) x83)))
(assert (not (= (_ bv5 8) (_ bv2 8))))
(assert (not (= (_ bv5 8) (_ bv1 8))))
(assert (not (= x83 (_ bv2 8))))
(assert (not (= x83 (_ bv1 8))))
(assert (not (= (_ bv2 8) (_ bv1 8))))
(assert (not (= (_ bv1 8) (_ bv5 8))))
(assert (not (= (_ bv1 8) x68)))
(assert (not (= (_ bv1 8) x76)))
(assert (not (= (_ bv1 8) (_ bv8 8))))
(assert (not (= (_ bv1 8) (_ bv4 8))))
(assert (not (= (_ bv1 8) (_ bv6 8))))
(assert (not (= (_ bv1 8) x87)))
(assert (not (= (_ bv1 8) (_ bv9 8))))
(assert (not (= (_ bv5 8) x68)))
(assert (not (= (_ bv5 8) x76)))
(assert (not (= (_ bv5 8) (_ bv8 8))))
(assert (not (= (_ bv5 8) (_ bv4 8))))
(assert (not (= (_ bv5 8) (_ bv6 8))))
(assert (not (= (_ bv5 8) x87)))
(assert (not (= (_ bv5 8) (_ bv9 8))))
(assert (not (= x68 x76)))
(assert (not (= x68 (_ bv8 8))))
(assert (not (= x68 (_ bv4 8))))
(assert (not (= x68 (_ bv6 8))))
(assert (not (= x68 x87)))
(assert (not (= x68 (_ bv9 8))))
(assert (not (= x76 (_ bv8 8))))
(assert (not (= x76 (_ bv4 8))))
(assert (not (= x76 (_ bv6 8))))
(assert (not (= x76 x87)))
(assert (not (= x76 (_ bv9 8))))
(assert (not (= (_ bv8 8) (_ bv4 8))))
(assert (not (= (_ bv8 8) (_ bv6 8))))
(assert (not (= (_ bv8 8) x87)))
(assert (not (= (_ bv8 8) (_ bv9 8))))
(assert (not (= (_ bv4 8) (_ bv6 8))))
(assert (not (= (_ bv4 8) x87)))
(assert (not (= (_ bv4 8) (_ bv9 8))))
(assert (not (= (_ bv6 8) x87)))
(assert (not (= (_ bv6 8) (_ bv9 8))))
(assert (not (= x87 (_ bv9 8))))
(check-sat)
(exit)
